c ---- [ banner ] ------------------------------------------------------------
c
c Kissat SAT Solver
c 
c Copyright (c) 2021-2024 Armin Biere University of Freiburg
c Copyright (c) 2019-2021 Armin Biere Johannes Kepler University Linz
c 
c Version 4.0.1 43f02cf3e992cb44653b35e5cb26f93281552ae0
c gcc (Ubuntu 13.2.0-23ubuntu4) 13.2.0 -W -Wall -O3 -DNDEBUG
c Thu Sep 12 12:27:46 CEST 2024 Linux abryzen9 6.8.0-41-generic x86_64
c
c ---- [ parsing ] -----------------------------------------------------------
c
c opened and reading DIMACS file:
c
c   /data/artifact/AMulet2.0_artifact/exp4/cnf_dc2_64/64_64_U_SP_CWT_CK_GenMul_dc2.cnf
c
c parsed 'p cnf 37481 150091' header
c closing input after reading 2946543 bytes (3 MB)
c finished parsing after 0.03 seconds
c
c ---- [ options ] -----------------------------------------------------------
c
c --stable=0                       (different from default '1')
c
c ---- [ solving ] -----------------------------------------------------------
c
c  seconds switched rate     size/glue tier1  binary           remaining
c         MB reductions conflicts size  tier2     irredundant
c          level restarts redundant glue  trail           variables
c
c *  0.03 12 0 0 0  0 0   0   0 0.0 0 0 0 0 0% 35166 114923 37478 100%
c (  0.04 13 0 0 0  0 0   0   0 0.0 0 0 0 0 0% 35166 114923 37478 100%
c .  0.05 13 0 0 0  0 0   0   0 0.0 0 0 0 0 0% 35162 114923 37478 100%
c c  0.12 21 0 0 0  0 0   0   0 0.0 0 0 0 0 0% 43538 99998 33286 89%
c d  0.13 21 0 0 0  0 0   0   0 0.0 0 0 0 0 0% 35154 99998 33286 89%
c =  0.18 21 0 0 0  0 0   0   0 0.0 0 0 0 0 0% 35098 99998 32705 87%
c d  0.19 21 0 0 0  0 0   0   0 0.0 0 0 0 0 0% 33936 99998 32705 87%
c f  0.31 20 0 0 0  0 0   0   0 0.0 0 0 0 0 0% 35146 95785 34677 93%
c e  0.50 27 0 0 0  0 0   0   0 0.0 0 0 0 0 0% 24237 104069 25380 68%
c )  0.51 27 0 0 0  0 0   0   0 0.0 0 0 0 0 0% 24237 104069 25380 68%
c {  0.53 27 0 0 0  0 0   0   0 0.0 0 0 2 6 0% 24237 104069 25380 68%
c -  0.80 27 128 0 1 251 30 1000 762 2.4 11 5 4 7 22% 24309 104060 25380 68%
c -  1.26 27 261 0 2 458 51 2000 1479 4.4 24 5 3 10 25% 24372 104057 25380 68%
c c  1.50 24 276 0 2 528 49 2507 1924 4.1 23 6 3 10 27% 25050 103631 24958 67%
c d  1.51 24 276 0 2 528 49 2507 1924 4.1 23 6 3 10 27% 24206 103631 24958 67%
c u  1.55 24 276 0 2 528 49 2507 1434 4.1 23 6 3 10 27% 22949 103631 24958 67%
c v  1.58 24 276 0 2 528 49 2507 1237 4.1 23 6 3 10 27% 22949 103631 24958 67%
c w  1.61 25 276 0 2 528 49 2507 1237 4.1 23 6 3 10 27% 22949 103631 24958 67%
c x  1.64 25 276 0 2 528 49 2507 1237 4.1 23 6 3 10 27% 23068 103231 24958 67%
c =  1.76 27 276 0 2 528 49 2507 1237 4.1 23 6 3 10 27% 23832 103231 24576 66%
c
c  seconds   switched   rate       size/glue tier1     binary           remaining
c         MB  reductions conflicts       size  tier2       irredundant
c           level restarts    redundant    glue    trail           variables
c
c d  1.77 27 276 0 2 528 49 2507 1231 4.1 23 6 3 10 27% 23065 103231 24576 66%
c t  1.79 27 276 0 2 528 49 2507 1231 4.1 23 6 3 10 27% 23035 103231 24576 66%
c f  1.84 27 276 0 2 528 49 2507 1231 4.1 23 6 3 10 27% 23382 102169 25040 67%
c u  1.94 27 276 0 2 528 49 2507 1150 4.1 23 6 3 10 27% 23388 102169 25040 67%
c v  1.96 27 276 0 2 528 49 2507 1101 4.1 23 6 3 10 27% 23388 102169 25040 67%
c w  2.00 27 276 0 2 528 49 2507 1097 4.1 23 6 3 10 27% 23388 102169 25040 67%
c x  2.03 27 276 0 2 528 49 2507 1097 4.1 23 6 3 10 27% 23390 101824 25040 67%
c =  2.14 27 276 0 2 528 49 2507 1097 4.1 23 6 3 10 27% 23898 101824 24786 66%
c d  2.16 27 276 0 2 528 49 2507 1094 4.1 23 6 3 10 27% 23375 101824 24786 66%
c t  2.18 27 276 0 2 528 49 2507 1094 4.1 23 6 3 10 27% 23327 101824 24786 66%
c f  2.22 27 276 0 2 528 49 2507 1094 4.1 23 6 3 10 27% 23509 101309 24948 67%
c -  2.40 27 306 0 3 599 43 3415 1651 3.7 20 5 3 9 27% 23527 101308 24948 67%
c -  2.91 27 280 0 4 809 41 5147 2694 3.7 21 6 3 9 28% 23612 101305 24948 67%
c -  3.33 27 274 0 5 993 36 7150 3880 3.4 19 6 3 8 28% 23697 101290 24948 67%
c d  3.46 27 274 0 5 1019 35 7717 4358 3.4 19 6 3 8 29% 23679 101290 24928 67%
c u  3.52 27 274 0 5 1019 35 7717 3441 3.4 19 6 3 8 29% 23684 101290 24928 67%
c v  3.56 27 274 0 5 1019 35 7717 3172 3.4 19 6 3 8 29% 23684 101290 24928 67%
c w  3.58 27 274 0 5 1019 35 7717 3171 3.4 19 6 3 8 29% 23684 101290 24928 67%
c x  3.61 27 274 0 5 1019 35 7717 3171 3.4 19 6 3 8 29% 23685 100868 24928 67%
c =  3.76 27 274 0 5 1019 35 7717 3171 3.4 19 6 3 8 29% 25421 100868 24060 64%
c
c  seconds   switched    rate       size/glue tier1    binary           remaining
c         MB  reductions  conflicts       size  tier2      irredundant
c           level  restarts    redundant    glue   trail           variables
c
c d  3.77 27 274 0 5 1019 35 7717 3138 3.4 19 6 3 8 29% 23651 100868 24060 64%
c t  3.80 27 274 0 5 1019 35 7717 3138 3.4 19 6 3 8 29% 23450 100868 24060 64%
c f  3.85 27 274 0 5 1019 35 7717 3138 3.4 19 6 3 8 29% 23820 99380 24522 65%
c c  3.94 27 274 0 5 1019 35 7717 3138 3.4 19 6 3 8 29% 23832 99354 24516 65%
c d  3.95 27 274 0 5 1019 35 7717 3138 3.4 19 6 3 8 29% 23820 99354 24516 65%
c u  4.00 27 274 0 5 1019 35 7717 2939 3.4 19 6 3 8 29% 23817 99354 24516 65%
c v  4.03 27 274 0 5 1019 35 7717 2813 3.4 19 6 3 8 29% 23818 99354 24516 65%
c w  4.06 27 274 0 5 1019 35 7717 2810 3.4 19 6 3 8 29% 23818 99354 24516 65%
c x  4.09 27 274 0 5 1019 35 7717 2810 3.4 19 6 3 8 29% 23849 98518 24516 65%
c =  4.24 27 274 0 5 1019 35 7717 2810 3.4 19 6 3 8 29% 24643 98518 24119 64%
c d  4.25 27 274 0 5 1019 35 7717 2792 3.4 19 6 3 8 29% 23640 98518 24118 64%
c t  4.27 27 274 0 5 1019 35 7717 2792 3.4 19 6 3 8 29% 23557 98518 24118 64%
c f  4.33 27 274 0 5 1019 35 7717 2792 3.4 19 6 3 8 29% 24135 97060 24745 66%
c -  4.79 27 269 0 6 1182 34 9386 3787 3.4 19 6 3 8 29% 24187 97059 24745 66%
c o  4.94 27 262 0 6 1225 34 10000 4237 3.5 19 6 3 8 29% 24233 97059 24745 66%
c -  5.26 27 263 0 7 1329 32 11835 5229 3.4 19 6 3 8 27% 24318 97055 24745 66%
c s  5.48 27 259 0 7 1395 32 12526 5844 3.4 19 6 3 8 28% 24349 89668 24745 66%
c e  5.62 27 259 0 7 1395 32 12526 5844 3.4 19 6 3 8 28% 21129 92158 22273 59%
c s  5.63 27 259 0 7 1395 32 12526 5844 3.4 19 6 3 8 28% 21150 91318 22273 59%
c e  5.66 27 259 0 7 1395 32 12526 5844 3.4 19 6 3 8 28% 20352 91734 21877 58%
c
c  seconds   switched    rate        size/glue tier1    binary          remaining
c         MB  reductions   conflicts       size  tier2      irredundant
c           level  restarts     redundant    glue   trail          variables
c
c ^  5.66 27 259 0 7 1395 32 12526 5844 3.4 19 6 3 8 28% 20352 91734 21877 58%
c -  6.21 27 265 0 8 1582 31 14480 5940 3.5 19 6 3 8 28% 20427 91733 21877 58%
c d  6.53 27 254 0 8 1706 31 15803 7081 3.5 20 6 3 8 28% 20417 91732 21845 58%
c u  6.60 27 254 0 8 1706 31 15803 5639 3.5 20 6 3 8 28% 20433 91732 21845 58%
c v  6.65 27 254 0 8 1706 31 15803 5209 3.5 20 6 3 8 28% 20433 91732 21845 58%
c w  6.69 27 254 0 8 1706 31 15803 5209 3.5 20 6 3 8 28% 20433 91732 21845 58%
c x  6.73 27 254 0 8 1706 31 15803 5204 3.5 20 6 3 8 28% 20516 91061 21845 58%
c =  6.94 27 254 0 8 1706 31 15803 5204 3.5 20 6 3 8 28% 20892 91061 21657 58%
c d  6.95 27 254 0 8 1706 31 15803 5180 3.5 20 6 3 8 28% 20391 91061 21657 58%
c t  6.97 27 254 0 8 1706 31 15803 5180 3.5 20 6 3 8 28% 20375 91061 21657 58%
c f  7.05 27 254 0 8 1706 31 15803 5180 3.5 20 6 3 8 28% 20400 90922 21694 58%
c u  7.12 27 254 0 8 1706 31 15803 4883 3.5 20 6 3 8 28% 20402 90922 21694 58%
c v  7.15 27 254 0 8 1706 31 15803 4770 3.5 20 6 3 8 28% 20402 90922 21694 58%
c w  7.21 27 254 0 8 1706 31 15803 4761 3.5 20 6 3 8 28% 20402 90922 21694 58%
c x  7.25 27 254 0 8 1706 31 15803 4761 3.5 20 6 3 8 28% 20473 90128 21694 58%
c =  7.44 27 254 0 8 1706 31 15803 4761 3.5 20 6 3 8 28% 21077 90128 21392 57%
c d  7.45 27 254 0 8 1706 31 15803 4713 3.5 20 6 3 8 28% 20393 90128 21391 57%
c t  7.47 27 254 0 8 1706 31 15803 4713 3.5 20 6 3 8 28% 20354 90128 21391 57%
c f  7.51 27 254 0 8 1706 31 15803 4713 3.5 20 6 3 8 28% 20328 90088 21402 57%
c -  7.71 27 264 0 9 1761 30 17309 5358 3.4 19 6 3 7 28% 20398 90088 21402 57%
c
c  seconds   switched     rate        size/glue tier1    binary          remaining
c         MB   reductions   conflicts       size  tier2      irredundant
c           level   restarts     redundant    glue   trail          variables
c
c -  8.43 27 256 0 10 2037 29 20309 6839 3.4 19 6 2 7 28% 20481 90087 21402 57%
c o  8.47 27 255 0 10 2038 29 20557 7040 3.3 19 6 2 7 28% 20490 90087 21402 57%
c -  9.50 27 254 0 11 2439 30 23471 8351 3.4 21 6 2 7 29% 20571 90087 21402 57%
c s  9.93 27 249 0 11 2585 30 25031 9764 3.5 21 6 2 7 29% 20610 88791 21402 57%
c e 10.08 27 249 0 11 2585 30 25031 9764 3.5 21 6 2 7 29% 16990 93908 19425 52%
c 2 10.08 27 249 0 11 2585 30 25031 9764 3.5 21 6 2 7 29% 16980 93908 19425 52%
c s 10.10 27 249 0 11 2585 30 25031 9764 3.5 21 6 2 7 29% 17065 92483 19425 52%
c e 10.13 27 249 0 11 2585 30 25031 9764 3.5 21 6 2 7 29% 17032 92538 19402 52%
c ^ 10.13 27 249 0 11 2585 30 25031 9764 3.5 21 6 2 7 29% 17032 92538 19402 52%
c - 10.52 27 250 0 12 2758 30 26788 8494 3.5 21 6 2 7 29% 17079 92534 19402 52%
c c 10.61 27 250 0 12 2763 30 26933 8612 3.5 21 6 2 7 29% 17117 92438 19387 52%
c d 10.62 27 250 0 12 2763 30 26933 8591 3.5 21 6 2 7 29% 17054 92438 19367 52%
c u 10.68 27 250 0 12 2763 30 26933 7460 3.5 21 6 2 7 29% 17078 92438 19367 52%
c v 10.74 27 250 0 12 2763 30 26933 6512 3.5 21 6 2 7 29% 17081 92438 19367 52%
c w 10.75 27 250 0 12 2763 30 26933 6509 3.5 21 6 2 7 29% 17081 92438 19367 52%
c x 10.84 27 250 0 12 2763 30 26933 6505 3.5 21 6 2 7 29% 17128 91542 19367 52%
c = 11.11 27 250 0 12 2763 30 26933 6505 3.5 21 6 2 7 29% 18144 91542 18859 50%
c d 11.13 27 250 0 12 2763 30 26933 6425 3.5 21 6 2 7 29% 17085 91542 18858 50%
c t 11.15 27 250 0 12 2763 30 26933 6425 3.5 21 6 2 7 29% 16953 91542 18858 50%
c f 11.25 27 250 0 12 2763 30 26933 6425 3.5 21 6 2 7 29% 17115 90762 19009 51%
c
c  seconds   switched     rate        size/glue tier1    binary          remaining
c         MB   reductions   conflicts       size  tier2      irredundant
c           level   restarts     redundant    glue   trail          variables
c
c u 11.31 27 250 0 12 2763 30 26933 6057 3.5 21 6 2 7 29% 17124 90762 19009 51%
c v 11.35 27 250 0 12 2763 30 26933 5848 3.5 21 6 2 7 29% 17124 90762 19009 51%
c w 11.36 27 250 0 12 2763 30 26933 5847 3.5 21 6 2 7 29% 17124 90762 19009 51%
c x 11.48 27 250 0 12 2763 30 26933 5844 3.5 21 6 2 7 29% 17141 88687 19009 51%
c = 11.79 27 250 0 12 2763 30 26933 5844 3.5 21 6 2 7 29% 19223 88687 17968 48%
c d 11.80 27 250 0 12 2763 30 26933 5712 3.5 21 6 2 7 29% 17078 88687 17968 48%
c t 11.83 27 250 0 12 2763 30 26933 5712 3.5 21 6 2 7 29% 16916 88687 17968 48%
c f 11.88 27 250 0 12 2763 30 26933 5712 3.5 21 6 2 7 29% 16974 88116 18083 48%
c - 12.74 27 241 0 13 3102 30 30252 7635 3.4 22 6 2 7 29% 17038 88113 18083 48%
c - 13.29 27 240 0 14 3273 28 33857 9654 3.3 21 6 2 7 29% 17121 88112 18083 48%
c - 14.16 27 236 0 15 3582 28 37599 11257 3.3 21 6 2 7 29% 17191 88110 18083 48%
c o 14.68 27 230 0 15 3758 27 40621 13942 3.2 21 6 2 7 29% 17246 88110 18083 48%
c d 14.86 27 228 0 15 3831 27 41260 14483 3.3 21 6 2 7 29% 17236 88110 18069 48%
c u 14.95 27 228 0 15 3831 27 41260 12462 3.3 21 6 2 7 29% 17253 88110 18069 48%
c v 15.02 27 228 0 15 3831 27 41260 11990 3.3 21 6 2 7 29% 17253 88110 18069 48%
c w 15.07 27 228 0 15 3831 27 41260 11989 3.3 21 6 2 7 29% 17253 88110 18069 48%
c x 15.16 27 228 0 15 3831 27 41260 11988 3.3 21 6 2 7 29% 17253 82177 18069 48%
c = 15.46 27 228 0 15 3831 27 41260 11988 3.3 21 6 2 7 29% 18567 82169 17412 46%
c d 15.47 27 228 0 15 3831 27 41260 11899 3.3 21 6 2 7 29% 17218 82169 17412 46%
c t 15.50 27 228 0 15 3831 27 41260 11899 3.3 21 6 2 7 29% 16994 82169 17412 46%
c
c  seconds   switched     rate         size/glue tier1    binary          remaining
c         MB   reductions   conflicts        size  tier2      irredundant
c           level   restarts      redundant    glue   trail          variables
c
c f 15.53 27 228 0 15 3831 27 41260 11899 3.3 21 6 2 7 29% 17042 81895 17462 47%
c u 15.62 27 228 0 15 3831 27 41260 11449 3.3 21 6 2 7 29% 17050 81895 17462 47%
c v 15.71 27 228 0 15 3831 27 41260 10351 3.3 21 6 2 7 29% 17052 81895 17462 47%
c w 15.76 27 228 0 15 3831 27 41260 10344 3.3 21 6 2 7 29% 17052 81895 17462 47%
c x 15.84 27 228 0 15 3831 27 41260 10341 3.3 21 6 2 7 29% 17058 79565 17462 47%
c = 16.10 27 228 0 15 3831 27 41260 10341 3.3 21 6 2 7 29% 17190 79565 17396 46%
c d 16.11 27 228 0 15 3831 27 41260 10310 3.3 21 6 2 7 29% 17012 79565 17396 46%
c t 16.14 27 228 0 15 3831 27 41260 10310 3.3 21 6 2 7 29% 16998 79565 17396 46%
c f 16.16 27 228 0 15 3831 27 41260 10310 3.3 21 6 2 7 29% 17001 79553 17398 46%
c - 16.29 27 227 0 16 3878 27 41471 9132 3.3 21 6 2 6 29% 17005 79553 17398 46%
c - 17.02 27 222 0 17 4157 26 45472 11228 3.3 21 6 2 6 28% 17085 79552 17398 46%
c - 17.74 27 217 0 18 4454 26 49595 13213 3.2 20 6 2 6 28% 17166 79549 17398 46%
c s 18.18 27 217 0 18 4631 26 52138 15359 3.2 21 6 2 6 28% 17236 76340 17398 46%
c e 18.31 27 217 0 18 4631 26 52138 15359 3.2 21 6 2 6 28% 15362 79619 16330 44%
c 2 18.31 27 217 0 18 4631 26 52138 15359 3.2 21 6 2 6 28% 15349 79619 16330 44%
c s 18.32 27 217 0 18 4631 26 52138 15359 3.2 21 6 2 6 28% 15399 79102 16330 44%
c e 18.34 27 217 0 18 4631 26 52138 15359 3.2 21 6 2 6 28% 15343 79186 16304 44%
c ^ 18.34 27 217 0 18 4631 26 52138 15359 3.2 21 6 2 6 28% 15343 79186 16304 44%
c - 18.47 27 216 0 19 4665 25 53837 13615 3.2 20 6 2 6 28% 15379 79184 16304 44%
c - 18.91 27 209 0 20 4837 24 58196 15353 3.1 20 6 2 6 26% 15459 79183 16304 44%
c
c  seconds   switched     rate         size/glue tier1    binary          remaining
c         MB   reductions   conflicts        size  tier2      irredundant
c           level   restarts      redundant    glue   trail          variables
c
c c 18.97 27 206 0 20 4837 24 58887 15927 3.1 20 6 2 6 26% 15479 79126 16288 43%
c d 18.98 27 206 0 20 4837 24 58887 15848 3.1 20 6 2 6 26% 15447 79126 16288 43%
c u 19.05 27 206 0 20 4837 24 58887 13650 3.1 20 6 2 6 26% 15457 79126 16288 43%
c v 19.11 27 206 0 20 4837 24 58887 12607 3.1 20 6 2 6 26% 15458 79126 16288 43%
c w 19.12 27 206 0 20 4837 24 58887 12584 3.1 20 6 2 6 26% 15458 79126 16288 43%
c x 19.19 27 206 0 20 4837 24 58887 12576 3.1 20 6 2 6 26% 15509 78568 16288 43%
c = 19.45 27 206 0 20 4837 24 58887 12576 3.1 20 6 2 6 26% 16563 78568 15761 42%
c d 19.46 27 206 0 20 4837 24 58887 11875 3.1 20 6 2 6 26% 15442 78568 15761 42%
c t 19.48 27 206 0 20 4837 24 58887 11875 3.1 20 6 2 6 26% 15276 78568 15761 42%
c f 19.56 27 206 0 20 4837 24 58887 11875 3.1 20 6 2 6 26% 15356 78119 15820 42%
c b 19.58 27 206 0 20 4837 24 58887 11875 3.1 20 6 2 6 26% 15356 78119 15818 42%
c u 19.64 27 206 0 20 4837 24 58887 10817 3.1 20 6 2 6 26% 15366 78119 15818 42%
c v 19.69 27 206 0 20 4837 24 58887 10052 3.1 20 6 2 6 26% 15367 78119 15818 42%
c w 19.70 27 206 0 20 4837 24 58887 10044 3.1 20 6 2 6 26% 15367 78119 15818 42%
c x 19.79 28 206 0 20 4837 24 58887 10036 3.1 20 6 2 6 26% 15451 74916 15818 42%
c = 20.05 28 206 0 20 4837 24 58887 10036 3.1 20 6 2 6 26% 15757 74916 15665 42%
c d 20.06 28 206 0 20 4837 24 58887 9871 3.1 20 6 2 6 26% 15442 74916 15665 42%
c t 20.08 28 206 0 20 4837 24 58887 9871 3.1 20 6 2 6 26% 15399 74916 15665 42%
c f 20.11 28 206 0 20 4837 24 58887 9871 3.1 20 6 2 6 26% 15407 74835 15676 42%
c - 20.62 28 201 0 21 5077 23 62668 11973 3.1 19 6 2 6 26% 15452 74833 15676 42%
c
c  seconds   switched     rate         size/glue tier1    binary          remaining
c         MB   reductions   conflicts        size  tier2      irredundant
c           level   restarts      redundant    glue   trail          variables
c
c - 21.44 28 196 0 22 5456 22 67250 14542 3.0 19 6 2 6 26% 15523 74833 15676 42%
c o 21.88 28 194 0 22 5711 22 70788 17623 3.0 19 6 2 6 26% 15578 74833 15676 42%
c - 21.99 28 193 0 23 5777 22 71940 16525 3.0 19 6 2 6 26% 15592 74833 15676 42%
c - 22.60 28 187 0 24 6252 22 76735 18270 3.0 19 6 2 5 26% 15673 74832 15676 42%
c d 22.88 28 183 0 24 6460 22 79945 20892 3.0 19 6 2 5 26% 15661 74832 15639 42%
c u 22.95 28 183 0 24 6460 22 79945 17840 3.0 19 6 2 5 26% 15687 74832 15639 42%
c v 23.00 28 183 0 24 6460 22 79945 16310 3.0 19 6 2 5 26% 15692 74832 15639 42%
c w 23.03 28 183 0 24 6460 22 79945 16303 3.0 19 6 2 5 26% 15692 74832 15639 42%
c x 23.09 28 183 0 24 6460 22 79945 16294 3.0 19 6 2 5 26% 15836 73745 15639 42%
c = 23.37 28 183 0 24 6460 22 79945 16294 3.0 19 6 2 5 26% 16820 73657 15138 40%
c d 23.38 28 183 0 24 6460 22 79945 15639 3.0 19 6 2 5 26% 15747 73657 15138 40%
c t 23.39 28 183 0 24 6460 22 79945 15639 3.0 19 6 2 5 26% 15559 73657 15138 40%
c f 23.41 28 183 0 24 6460 22 79945 15639 3.0 19 6 2 5 26% 15611 73419 15168 40%
c u 23.48 28 183 0 24 6460 22 79945 14175 3.0 19 6 2 5 26% 15623 73419 15168 40%
c v 23.51 28 183 0 24 6460 22 79945 13564 3.0 19 6 2 5 26% 15624 73419 15168 40%
c w 23.56 28 183 0 24 6460 22 79945 13529 3.0 19 6 2 5 26% 15624 73419 15168 40%
c x 23.61 28 183 0 24 6460 22 79945 13523 3.0 19 6 2 5 26% 15691 72487 15168 40%
c = 23.87 28 183 0 24 6460 22 79945 13523 3.0 19 6 2 5 26% 15815 72487 15106 40%
c d 23.88 28 183 0 24 6460 22 79945 13432 3.0 19 6 2 5 26% 15689 72487 15106 40%
c t 23.89 28 183 0 24 6460 22 79945 13432 3.0 19 6 2 5 26% 15652 72487 15106 40%
c
c  seconds   switched     rate         size/glue tier1    binary          remaining
c         MB   reductions   conflicts        size  tier2      irredundant
c           level   restarts      redundant    glue   trail          variables
c
c f 23.90 28 183 0 24 6460 22 79945 13432 3.0 19 6 2 5 26% 15658 72460 15109 40%
c - 24.08 28 181 0 25 6605 22 81633 13265 3.0 19 6 2 5 26% 15679 72456 15109 40%
c - 24.71 28 177 0 26 7054 21 86633 15936 2.9 19 6 2 5 27% 15728 72452 15109 40%
c - 25.31 28 174 0 27 7496 21 91732 18350 2.9 19 6 2 5 27% 15800 72451 15109 40%
c i 25.36 28 173 0 27 7532 21 92305 18852 2.9 19 6 2 5 27% 15820 72450 15108 40%
c s 25.76 28 171 0 27 7818 21 95794 22010 2.9 18 6 2 5 27% 15868 69841 15108 40%
c e 25.85 28 171 0 27 7818 21 95794 22010 2.9 18 6 2 5 27% 11894 80652 12978 35%
c 2 25.85 28 171 0 27 7818 21 95794 22010 2.9 18 6 2 5 27% 11887 80652 12978 35%
c s 25.88 28 171 0 27 7818 21 95794 22010 2.9 18 6 2 5 27% 11934 79195 12978 35%
c e 25.90 28 171 0 27 7818 21 95794 22010 2.9 18 6 2 5 27% 11818 79443 12935 35%
c ^ 25.90 28 171 0 27 7818 21 95794 22010 2.9 18 6 2 5 27% 11818 79443 12935 35%
c - 26.07 28 171 0 28 7959 21 96928 15052 2.9 18 6 2 5 27% 11830 79443 12935 35%
c - 26.53 28 168 0 29 8381 21 102219 17627 2.8 18 6 2 5 27% 11874 79437 12935 35%
c d 26.76 28 166 0 29 8552 20 104559 19768 2.8 18 6 2 5 27% 11875 79436 12930 34%
c u 26.82 28 166 0 29 8552 20 104559 16804 2.8 18 6 2 5 27% 11899 79436 12930 34%
c v 26.87 28 166 0 29 8552 20 104559 15030 2.8 18 6 2 5 27% 11899 79436 12930 34%
c w 26.91 28 166 0 29 8552 20 104559 15014 2.8 18 6 2 5 27% 11899 79436 12930 34%
c x 26.97 28 166 0 29 8552 20 104559 15012 2.8 18 6 2 5 27% 11912 79304 12930 34%
c = 27.29 28 166 0 29 8552 20 104559 15012 2.8 18 6 2 5 27% 12262 78897 12705 34%
c d 27.30 28 166 0 29 8552 20 104559 14426 2.8 18 6 2 5 27% 11901 78891 12705 34%
c
c  seconds   switched     rate          size/glue tier1    binary          remaining
c         MB   reductions   conflicts         size  tier2      irredundant
c           level   restarts       redundant    glue   trail          variables
c
c t 27.31 28 166 0 29 8552 20 104559 14426 2.8 18 6 2 5 27% 11767 78891 12705 34%
c f 27.40 28 166 0 29 8552 20 104559 14426 2.8 18 6 2 5 27% 11799 78708 12721 34%
c u 27.48 28 166 0 29 8552 20 104559 13675 2.8 18 6 2 5 27% 11793 78708 12720 34%
c v 27.51 28 166 0 29 8552 20 104559 13291 2.8 18 6 2 5 27% 11795 78708 12720 34%
c w 27.58 28 166 0 29 8552 20 104559 13025 2.8 18 6 2 5 27% 11795 78708 12720 34%
c = 27.90 28 166 0 29 8552 20 104559 13025 2.8 18 6 2 5 27% 11797 78708 12719 34%
c d 27.91 28 166 0 29 8552 20 104559 13025 2.8 18 6 2 5 27% 11794 78708 12719 34%
c t 27.92 28 166 0 29 8552 20 104559 13025 2.8 18 6 2 5 27% 11790 78708 12719 34%
c i 27.95 28 165 0 29 8586 20 105131 13493 2.8 18 6 2 5 27% 11801 78708 12717 34%
c i 27.95 28 165 0 29 8586 20 105159 13506 2.8 18 6 2 5 27% 11806 78708 12714 34%
c i 27.95 28 165 0 29 8586 20 105160 13506 2.8 18 6 2 5 27% 11806 78708 12712 34%
c i 27.95 28 165 0 29 8586 20 105182 13513 2.8 18 6 2 5 27% 11810 78707 12709 34%
c i 27.95 28 165 0 29 8586 20 105185 13512 2.8 18 6 2 5 27% 11811 78707 12708 34%
c i 27.95 28 165 0 29 8586 20 105188 13512 2.8 18 6 2 5 27% 11813 78707 12707 34%
c i 27.95 28 165 0 29 8586 20 105189 13512 2.8 18 6 2 5 27% 11813 78707 12706 34%
c } 27.95 28 165 0 29 8586 20 105195 13512 2.8 18 6 2 5 27% 11816 78707 12685 34%
c 0 27.95 28 165 0 29 8586 20 105195 13512 2.8 18 6 2 5 27% 11816 78707 12685 34%
c
c ---- [ result ] ------------------------------------------------------------
c
s UNSATISFIABLE
c
c ---- [ profiling ] ---------------------------------------------------------
c
c          17.86   63.89 %  search
c          17.86   63.89 %  focused
c           9.56   34.21 %  simplify
c           9.02   32.29 %  probe
c           3.83   13.69 %  sweep
c           2.96   10.59 %  vivify
c           0.90    3.21 %  factor
c           0.81    2.88 %  eliminate
c           0.61    2.19 %  substitute
c           0.46    1.66 %  congruence
c           0.46    1.66 %  preprocess
c           0.20    0.72 %  reduce
c           0.19    0.68 %  fastel
c           0.17    0.61 %  transitive
c           0.17    0.60 %  subsume
c           0.09    0.33 %  backbone
c           0.04    0.15 %  lucky
c           0.03    0.09 %  parse
c =============================================
c          27.95  100.00 %  total
c
c ---- [ statistics ] --------------------------------------------------------
c
c chronological:                         3985                4 %  conflicts
c conflicts:                           105195             3763.54 per second
c congruent:                             4651               12 %  variables
c decisions:                          2171277               20.64 per conflict
c eliminated:                           17432               47 %  variables
c factored:                              4172               11 %  variables
c fast_eliminated:                       9297               53 %  eliminated
c fast_strengthened:                      360               10 %  per strengthened
c fast_subsumed:                          253                1 %  per subsumed
c iterations:                               9                0 %  variables
c propagations:                     107478350          3845226    per second
c reductions:                              29             3627    interval
c reordered:                                4            26299    interval
c restarts:                              8586               12    interval
c strengthened:                          3660                0 %  checks
c substituted:                          11435               31 %  variables
c subsumed:                             18759                1 %  checks
c switched:                                 0                0    interval
c vivified:                             66669               16 %  checks
c
c ---- [ glue usage ] --------------------------------------------------------
c
c focused glue 2 used 54780 clauses 24.66% accumulated 70.62% tier1
c focused glue 3 used 25541 clauses 11.50% accumulated 82.11%
c focused glue 4 used 11558 clauses  5.20% accumulated 87.32%
c focused glue 5 used  7069 clauses  3.18% accumulated 90.50% tier2
c
c ---- [ resources ] ---------------------------------------------------------
c
c maximum-resident-set-size:         29237248 bytes         28 MB
c process-time:                            28s              27.95 seconds
c
c ---- [ shutting down ] -----------------------------------------------------
c
c exit 20
